10	6	2
6 2 1 3 5 8 3 1 4 6 3 5 1 3 6 3 3 5 7 2 1 1 2 2 3 3 4 5 6 1 2 4 3 6 3 5 8 2 1 6 10 1 1 1 2 1 3 1 1 2 3 6 1 6 7 3 4 6 8 4 1 3 4
5 1 2 2 6 9 1 3 1 1 2 1 1 1 2 3 2 2 5 6 8 4 3 6 12 3 6 2 5 6 2 5 6 7 1 1 1 2 
5 1 2 5 6 9 2 3 2 4 5 6 1 2 3 3 6 1 5 8 2 1 6 7 1 1 1 2 3 3 2 4 5 2 2 6 9 6 2 6 12 2 1 1 1 2 5 1 5 6 
5 3 6 2 5 10 2 4 6 11 1 1 1 2 1 2 5 6 7 1 3 1 1 2 3 5 2 3 6 3 3 5 7 2 1 1 2 2 3 3 4 5 6 1 2 3 
6 3 5 2 3 5 3 1 5 7 2 1 1 2 3 6 3 5 9 2 5 6 10 1 1 1 2 1 2 4 6 8 2 1 3 5 10 3 2 4 5 2 2 3 6 12 4 3 6 11 3 3 3 4 6 2 2 6 9 6 4 6 7 
6 2 3 3 4 8 6 1 2 3 1 1 1 2 3 3 3 1 4 7 2 5 6 7 6 4 6 7 1 2 4 6 7 3 6 4 5 7 2 4 6 9 1 1 1 2 2 1 2 3 6 4 1 2 3 
5 1 6 1 1 2 2 1 2 3 6 4 1 2 3 3 3 3 4 8 2 3 6 8 6 2 6 7 3 2 4 6 10 5 1 1 2 1 2 6 11 1 3 1 1 2 
5 2 3 3 4 6 6 1 2 4 3 3 2 4 7 2 3 6 8 6 4 6 12 3 6 1 5 10 2 5 6 8 1 1 1 2 1 2 4 6 12 2 2 3 6 11 4 1 6 8 
6 1 6 1 1 2 2 1 1 1 2 5 1 5 7 3 6 5 6 11 3 1 6 10 4 2 3 6 1 1 1 2 3 3 3 1 4 8 2 5 6 10 6 3 6 10 2 2 3 6 12 4 1 6 11 
6 2 3 3 4 8 6 1 2 3 3 3 2 4 8 2 2 6 8 6 2 6 7 3 5 2 3 4 3 4 5 10 2 1 1 2 1 6 1 1 2 2 2 5 6 7 4 2 6 9 2 1 2 3 5 4 1 2 3 
